set S := 1 2 3 4 5;
set R := 1 2 3 4 5 6;

param f:= 
1 4
2 8
3 11
4 7
5 5
;

param c:=
1 1 6
1 2 4
1 3 3
1 4 2
1 5 1
1 6 3
2 1 2
2 2 10
2 3 2
2 4 0
2 5 8
2 6 2
3 1 1
3 2 2
3 3 4
3 4 4
3 5 6
3 6 4
4 1 3
4 2 6
4 3 1
4 4 1
4 5 2
4 6 8
5 1 5
5 2 1
5 3 3
5 4 4
5 5 5
5 6 1;